43 422
4 6 8 9 14 24 25 27 31 32 33 34 35 37 39 40 41
2 3 5 8 12 15 16 21 24 25 33 34 35 39
1 3 4 6 9 11 15 16 19 23 24 25 26 28 29 34 35 36 39 41 42
1 2 4 5 6 7 8 10 11 14 15 16 17 18 27 28 29 31 32 33 35 36 37 38 39 41 42
0 2 3 5 8 9 11 13 15 16 19 21 22 23 26 34 35 36 38
1 3 4 11 12 13 15 16 17 19 20 21 27 28 30 32 35 39 42
0 2 3 7 10 15 16 17 20 24 25 27 30 32 33 34 35 36 37 42
3 6 9 13 17 20 22 24 27 31 33 35 36 38 39 40
0 1 3 4 10 13 18 21 27 28 29 31 33 40 42
0 2 4 7 10 14 16 18 23 24 28 32 35 39 40 42
3 6 8 9 13 14 15 22 23 24 25 26 27 30 32 34 35 36 37 38 41 42
2 3 4 5 13 15 17 20 22 24 28 29 31 32 36 40 42
1 5 15 17 18 20 21 23 24 25 26 27 28 29 35 36 38 40 41
4 5 7 8 10 11 16 21 22 23 24 28 30 31 33 38 39 40 42
0 3 9 10 15 18 23 24 25 33 35 40 41 42
1 2 3 4 5 6 10 11 12 14 16 19 22 23 24 25 26 28 29 31 33 34 38 42
1 2 3 4 5 6 9 13 15 17 18 21 23 24 25 26 27 28 29 30 31 35 37 38 39 40 42
3 5 6 7 11 12 16 19 20 21 22 24 25 26 28 30 31 32 36 38 41 42
3 8 9 12 14 16 19 22 23 29 30 32 34 36 39 40 42
2 4 5 15 17 18 20 21 24 25 27 32 33 35 38 40 42
5 6 7 11 12 17 19 22 23 24 28 34 36 38
1 4 5 8 12 13 16 17 19 22 23 24 28 29 30 32 33 38 39
4 7 10 11 13 15 17 18 20 21 25 26 27 29 30 34 35 36 39 41 42
2 4 9 10 12 13 14 15 16 18 20 21 28 30 32 35 37 38 40
0 1 2 6 7 9 10 11 12 13 14 15 16 17 19 20 21 25 29 30 32 34 36 38 39 40 42
0 1 2 6 10 12 14 15 16 17 19 22 24 26 28 31 32 33 35 36 37 40 42
2 4 10 12 15 16 17 22 25 27 28 29 30 31 33 34 36 38 39 41
0 3 5 6 7 8 10 12 16 19 22 26 29 34 35 36 37 40
2 3 5 8 9 11 12 13 15 16 17 20 21 23 25 26 29 30 31 33 35 36 38 39 40 41 42
2 3 8 11 12 15 16 18 21 22 24 26 27 28 31 36 38 39
5 6 10 13 16 17 18 21 22 23 24 26 28 33 38 39 42
0 3 7 8 11 13 15 16 17 25 26 28 29 33 35 36 38 41
0 3 5 6 9 10 11 17 18 19 21 23 24 25 34 38 39 41 42
0 1 3 6 7 8 13 14 15 19 21 25 26 28 30 31 36 38 42
0 1 2 4 6 10 15 18 20 22 24 26 27 32 38 39 40 41
0 1 2 3 4 5 6 7 9 10 12 14 16 19 22 23 25 27 28 31 37 41
2 3 4 6 7 10 11 12 17 18 20 22 24 25 26 27 28 29 31 33 38 39 40 42
0 3 6 10 16 23 25 27 35 40
3 4 7 10 12 13 15 16 17 19 20 21 23 24 26 28 29 30 31 32 33 34 36 39 41 42
0 1 2 3 5 7 9 13 16 18 21 22 24 26 28 29 30 32 34 36 38 41
0 7 8 9 11 12 13 14 16 18 19 23 24 25 27 28 34 36 37 41
0 2 3 10 12 14 17 22 26 28 31 32 34 35 38 39 40
2 3 5 6 8 9 10 11 13 14 15 16 17 18 19 22 24 25 28 30 32 33 36 38
